solving instance transportation 10 3 square
Set parameter TokenServer to value "licences.gerad.lan"
Set parameter MIPGap to value 1e-06
Set parameter FuncPieceError to value 1e-06
Set parameter Threads to value 1
Set parameter FuncPieces to value -2
Set parameter TimeLimit to value 3600
Gurobi Optimizer version 12.0.2 build v12.0.2rc0 (linux64 - "AlmaLinux 9.6 (Sage Margay)")

CPU model: Intel(R) Xeon(R) Gold 6258R CPU @ 2.70GHz, instruction set [SSE2|AVX|AVX2|AVX512]
Thread count: 56 physical cores, 56 logical processors, using up to 1 threads

Non-default parameters:
TimeLimit  3600
MIPGap  1e-06
Threads  1
FuncPieces  -2
FuncPieceError  1e-06

Optimize a model with 220 rows, 400 columns and 600 nonzeros
Model fingerprint: 0x568f0e1b
Model has 100 function constraints treated as nonlinear
  100 POW
Variable types: 300 continuous, 100 integer (100 binary)
Coefficient statistics:
  Matrix range     [3e-04, 3e+02]
  Objective range  [1e+00, 1e+00]
  Bounds range     [1e+00, 1e+10]
  RHS range        [1e+00, 3e+02]
Warning: Model contains large bounds
         Consider reformulating model or setting NumericFocus parameter
         to avoid numerical issues.
Presolve removed 200 rows and 300 columns
Presolve time: 0.00s
Presolved: 20 rows, 100 columns, 200 nonzeros
Presolved model has 100 quadratic objective terms
Variable types: 100 continuous, 0 integer (0 binary)
Root relaxation presolve time: 0.00s
Root relaxation presolved: 20 rows, 100 columns, 200 nonzeros
Root relaxation presolved model has 100 quadratic objective terms
Root barrier log...

Ordering time: 0.00s

Barrier statistics:
 AA' NZ     : 1.000e+02
 Factor NZ  : 2.100e+02
 Factor Ops : 2.870e+03 (less than 1 second per iteration)
 Threads    : 1

                  Objective                Residual
Iter       Primal          Dual         Primal    Dual     Compl     Time
   0   2.66127513e+07 -2.71813038e+07  6.00e+03 7.35e+02  6.50e+05     0s
   1   1.34988896e+06 -2.03565198e+06  1.07e+03 1.28e+02  1.18e+05     0s
   2   3.74248644e+03 -6.90061656e+05  3.31e+01 3.91e+00  6.56e+03     0s
   3   1.01126609e+03 -2.77879039e+05  6.98e+00 8.79e-01  1.83e+03     0s
   4   4.22538795e+02 -1.20642987e+05  2.07e+00 2.47e-01  7.10e+02     0s
   5   2.59572128e+02 -4.53518105e+04  6.53e-01 7.83e-02  2.51e+02     0s
   6   1.50645017e+02 -1.45815819e+04  1.10e-01 1.53e-02  7.39e+01     0s
   7   1.38436989e+02 -6.62096755e+03  3.62e-02 5.58e-03  3.30e+01     0s
   8   1.27209763e+02 -7.37213705e+02  3.16e-03 4.48e-04  4.13e+00     0s
   9   1.02653792e+02 -7.18875441e+01  2.52e-04 3.62e-05  8.16e-01     0s
  10   9.21949834e+01  4.78925464e+01  3.71e-05 5.80e-06  2.06e-01     0s
  11   8.96476230e+01  8.70608576e+01  7.23e-07 8.66e-08  1.18e-02     0s
  12   8.95263557e+01  8.94492256e+01  5.33e-09 9.55e-10  3.51e-04     0s
  13   8.95179750e+01  8.95158793e+01  4.44e-11 7.68e-12  9.53e-06     0s
  14   8.95167384e+01  8.95166848e+01  6.78e-13 2.89e-12  2.44e-07     0s
  15   8.95166889e+01  8.95166887e+01  2.69e-15 2.58e-12  7.12e-10     0s

Barrier solved model in 15 iterations and 0.00 seconds (0.00 work units)
Optimal objective 8.95166889e+01


Root relaxation: objective 8.951669e+01, 0 iterations, 0.00 seconds (0.00 work units)

    Nodes    |    Current Node    |     Objective Bounds      |     Work
 Expl Unexpl |  Obj  Depth IntInf | Incumbent    BestBd   Gap | It/Node Time

*    0     0               0      89.5166889   89.51669  0.00%     -    0s

Explored 1 nodes (0 simplex iterations) in 0.00 seconds (0.00 work units)
Thread count was 1 (of 56 available processors)

Solution count 1: 89.5167 

Optimal solution found (tolerance 1.00e-06)
Best objective 8.951668885882e+01, best bound 8.951668885882e+01, gap 0.0000%

User-callback calls 343, time in user-callback 0.00 sec
primal_bound = 89.5166888588196, dual_bound = 89.51668885882133, gap = 1.9208858621338457e-12, time = 0.01
